c Generated map
c Size: 13 * 13, weights in range: 1 to 10, walls: True, with ratio 0.1
c dim 2 of 4
c
p sp 169 251
c graph contains 169 nodes and 251 arcs
c
a 1 14 9
a 14 1 9
a 1 2 4
a 2 1 4
a 2 15 7
a 15 2 7
a 2 3 8
a 3 2 8
a 3 16 3
a 16 3 3
a 3 4 7
a 4 3 7
a 4 17 3
a 17 4 3
a 4 5 6
a 5 4 6
a 5 18 4
a 18 5 4
a 5 6 8
a 6 5 8
a 6 19 9
a 19 6 9
a 6 7 2
a 7 6 2
a 7 20 2
a 20 7 2
a 9 22 4
a 22 9 4
a 11 24 10
a 24 11 10
a 11 12 8
a 12 11 8
a 12 25 4
a 25 12 4
a 12 13 7
a 13 12 7
a 13 26 6
a 26 13 6
a 14 27 6
a 27 14 6
a 14 15 2
a 15 14 2
a 15 28 10
a 28 15 10
a 15 16 6
a 16 15 6
a 16 29 6
a 29 16 6
a 16 17 5
a 17 16 5
a 17 30 1
a 30 17 1
a 17 18 5
a 18 17 5
a 18 31 4
a 31 18 4
a 18 19 9
a 19 18 9
a 19 20 1
a 20 19 1
a 20 33 3
a 33 20 3
a 20 21 2
a 21 20 2
a 21 34 6
a 34 21 6
a 21 22 2
a 22 21 2
a 22 23 4
a 23 22 4
a 23 36 2
a 36 23 2
a 23 24 8
a 24 23 8
a 24 37 9
a 37 24 9
a 24 25 3
a 25 24 3
a 25 38 4
a 38 25 4
a 25 26 10
a 26 25 10
a 26 39 5
a 39 26 5
a 27 28 1
a 28 27 1
a 28 41 7
a 41 28 7
a 28 29 7
a 29 28 7
a 29 42 5
a 42 29 5
a 29 30 4
a 30 29 4
a 30 31 6
a 31 30 6
a 31 44 2
a 44 31 2
a 33 46 6
a 46 33 6
a 33 34 10
a 34 33 10
a 36 49 7
a 49 36 7
a 36 37 2
a 37 36 2
a 37 38 10
a 38 37 10
a 38 51 1
a 51 38 1
a 38 39 5
a 39 38 5
a 39 52 10
a 52 39 10
a 41 54 10
a 54 41 10
a 41 42 2
a 42 41 2
a 42 55 2
a 55 42 2
a 44 57 8
a 57 44 8
a 44 45 6
a 45 44 6
a 45 58 10
a 58 45 10
a 45 46 3
a 46 45 3
a 48 61 7
a 61 48 7
a 48 49 1
a 49 48 1
a 49 62 5
a 62 49 5
a 51 64 10
a 64 51 10
a 51 52 3
a 52 51 3
a 52 65 1
a 65 52 1
a 53 54 3
a 54 53 3
a 54 67 4
a 67 54 4
a 54 55 1
a 55 54 1
a 55 68 1
a 68 55 1
a 55 56 8
a 56 55 8
a 56 69 10
a 69 56 10
a 56 57 5
a 57 56 5
a 57 58 1
a 58 57 1
a 58 71 7
a 71 58 7
a 60 73 3
a 73 60 3
a 60 61 8
a 61 60 8
a 61 74 6
a 74 61 6
a 61 62 5
a 62 61 5
a 62 75 6
a 75 62 6
a 62 63 1
a 63 62 1
a 63 76 5
a 76 63 5
a 63 64 6
a 64 63 6
a 64 77 7
a 77 64 7
a 64 65 4
a 65 64 4
a 67 68 9
a 68 67 9
a 68 81 1
a 81 68 1
a 68 69 7
a 69 68 7
a 69 82 8
a 82 69 8
a 71 84 8
a 84 71 8
a 71 72 4
a 72 71 4
a 72 85 7
a 85 72 7
a 72 73 7
a 73 72 7
a 73 74 8
a 74 73 8
a 74 87 5
a 87 74 5
a 74 75 8
a 75 74 8
a 75 88 5
a 88 75 5
a 75 76 1
a 76 75 1
a 76 89 8
a 89 76 8
a 76 77 8
a 77 76 8
a 77 90 3
a 90 77 3
a 79 92 8
a 92 79 8
a 81 94 1
a 94 81 1
a 81 82 9
a 82 81 9
a 82 95 8
a 95 82 8
a 82 83 1
a 83 82 1
a 83 96 10
a 96 83 10
a 83 84 8
a 84 83 8
a 84 97 2
a 97 84 2
a 84 85 10
a 85 84 10
a 85 98 6
a 98 85 6
a 87 100 3
a 100 87 3
a 87 88 6
a 88 87 6
a 88 101 6
a 101 88 6
a 88 89 4
a 89 88 4
a 89 102 7
a 102 89 7
a 89 90 7
a 90 89 7
a 90 103 1
a 103 90 1
a 90 91 4
a 91 90 4
a 91 104 2
a 104 91 2
a 92 105 6
a 105 92 6
a 92 93 5
a 93 92 5
a 93 106 6
a 106 93 6
a 93 94 3
a 94 93 3
a 94 107 5
a 107 94 5
a 94 95 6
a 95 94 6
a 95 108 1
a 108 95 1
a 95 96 9
a 96 95 9
a 96 109 10
a 109 96 10
a 96 97 7
a 97 96 7
a 97 110 2
a 110 97 2
a 97 98 6
a 98 97 6
a 98 111 1
a 111 98 1
a 98 99 4
a 99 98 4
a 99 112 9
a 112 99 9
a 99 100 5
a 100 99 5
a 100 113 2
a 113 100 2
a 100 101 7
a 101 100 7
a 101 114 8
a 114 101 8
a 101 102 3
a 102 101 3
a 102 115 9
a 115 102 9
a 102 103 8
a 103 102 8
a 103 116 10
a 116 103 10
a 103 104 4
a 104 103 4
a 104 117 7
a 117 104 7
a 105 106 8
a 106 105 8
a 106 119 2
a 119 106 2
a 106 107 5
a 107 106 5
a 107 120 9
a 120 107 9
a 107 108 4
a 108 107 4
a 108 121 5
a 121 108 5
a 108 109 6
a 109 108 6
a 109 122 8
a 122 109 8
a 109 110 3
a 110 109 3
a 110 123 7
a 123 110 7
a 110 111 7
a 111 110 7
a 111 124 8
a 124 111 8
a 111 112 10
a 112 111 10
a 112 125 2
a 125 112 2
a 112 113 9
a 113 112 9
a 113 126 7
a 126 113 7
a 113 114 3
a 114 113 3
a 114 127 6
a 127 114 6
a 114 115 8
a 115 114 8
a 115 128 2
a 128 115 2
a 115 116 1
a 116 115 1
a 116 129 6
a 129 116 6
a 116 117 8
a 117 116 8
a 117 130 3
a 130 117 3
a 119 132 9
a 132 119 9
a 119 120 10
a 120 119 10
a 120 133 4
a 133 120 4
a 120 121 5
a 121 120 5
a 121 134 10
a 134 121 10
a 121 122 10
a 122 121 10
a 122 135 10
a 135 122 10
a 122 123 7
a 123 122 7
a 123 136 5
a 136 123 5
a 123 124 9
a 124 123 9
a 124 137 8
a 137 124 8
a 124 125 1
a 125 124 1
a 125 138 5
a 138 125 5
a 125 126 1
a 126 125 1
a 126 127 3
a 127 126 3
a 127 140 6
a 140 127 6
a 127 128 3
a 128 127 3
a 128 141 3
a 141 128 3
a 128 129 6
a 129 128 6
a 129 142 3
a 142 129 3
a 129 130 6
a 130 129 6
a 130 143 8
a 143 130 8
a 131 144 1
a 144 131 1
a 131 132 4
a 132 131 4
a 132 145 7
a 145 132 7
a 132 133 5
a 133 132 5
a 133 146 8
a 146 133 8
a 133 134 8
a 134 133 8
a 134 147 8
a 147 134 8
a 134 135 10
a 135 134 10
a 135 148 3
a 148 135 3
a 135 136 5
a 136 135 5
a 136 149 3
a 149 136 3
a 136 137 4
a 137 136 4
a 137 150 4
a 150 137 4
a 137 138 4
a 138 137 4
a 138 151 7
a 151 138 7
a 140 153 4
a 153 140 4
a 140 141 10
a 141 140 10
a 141 154 8
a 154 141 8
a 141 142 3
a 142 141 3
a 142 155 4
a 155 142 4
a 142 143 9
a 143 142 9
a 143 156 6
a 156 143 6
a 144 157 3
a 157 144 3
a 144 145 7
a 145 144 7
a 145 158 3
a 158 145 3
a 145 146 4
a 146 145 4
a 146 159 4
a 159 146 4
a 146 147 3
a 147 146 3
a 147 160 6
a 160 147 6
a 147 148 2
a 148 147 2
a 148 161 4
a 161 148 4
a 148 149 3
a 149 148 3
a 149 162 3
a 162 149 3
a 149 150 6
a 150 149 6
a 150 163 7
a 163 150 7
a 150 151 6
a 151 150 6
a 151 152 1
a 152 151 1
a 152 165 2
a 165 152 2
a 152 153 2
a 153 152 2
a 153 166 5
a 166 153 5
a 153 154 9
a 154 153 9
a 154 167 2
a 167 154 2
a 154 155 8
a 155 154 8
a 155 168 10
a 168 155 10
a 155 156 9
a 156 155 9
a 156 169 5
a 169 156 5
a 157 158 4
a 158 157 4
a 158 159 3
a 159 158 3
a 159 160 4
a 160 159 4
a 160 161 6
a 161 160 6
a 161 162 6
a 162 161 6
a 162 163 5
a 163 162 5
a 165 166 6
a 166 165 6
a 166 167 10
a 167 166 10
a 167 168 9
a 168 167 9
a 168 169 9
a 169 168 9
